decision_x1=[0,4];
decision_x2=[0,4];
decision_x3=[0,4];
decision_x4=[0,4];
decision_x5=[0,4];
random_y1=[0,4];
constraint_x3_x1=[
0,1,8.4|
0,2,2.8|
0,3,5.2|
0,4,3.1|
1,0,5|
1,2,3.8|
1,3,5.3|
1,4,0.67|
2,0,4.9|
2,1,6.2|
2,3,7.5|
2,4,4.1|
3,0,8.4|
3,1,4.2|
3,2,0.78|
3,4,9.6|
4,0,7.5|
4,1,9.7|
4,2,5.9|
4,3,7.7|
];
constraint_x4_x1=[
0,1,0.83|
0,2,4.4|
0,3,3|
0,4,4.9|
1,0,3.6|
1,2,1.4|
1,3,1.4|
1,4,8.5|
2,0,7.7|
2,1,0.054|
2,3,1|
2,4,9.8|
3,0,3.9|
3,1,5.3|
3,2,0.29|
3,4,7.9|
4,0,0.92|
4,1,5.4|
4,2,7.2|
4,3,2.3|
];
constraint_x4_x2=[
0,1,9.9|
0,2,5.1|
0,3,0.31|
0,4,2.1|
1,0,9.3|
1,2,5.3|
1,3,9.5|
1,4,1.1|
2,0,7.3|
2,1,2.2|
2,3,4.9|
2,4,9|
3,0,9.8|
3,1,6.9|
3,2,0.082|
3,4,5.9|
4,0,9.1|
4,1,1.2|
4,2,3.8|
4,3,4.1|
];
constraint_x4_x3=[
0,1,2.8|
0,2,3.1|
0,3,9.3|
0,4,7.8|
1,0,4.9|
1,2,9.4|
1,3,2.3|
1,4,0.77|
2,0,6.3|
2,1,6.4|
2,3,5.6|
2,4,4.4|
3,0,7.5|
3,1,5.3|
3,2,9.9|
3,4,3|
4,0,7.2|
4,1,2.8|
4,2,9|
4,3,2.9|
];
constraint_x5_x2=[
0,1,4.5|
0,2,0.76|
0,3,4.1|
0,4,4.9|
1,0,6|
1,2,6|
1,3,0.94|
1,4,5.7|
2,0,9.6|
2,1,9.3|
2,3,2.4|
2,4,1.2|
3,0,5.6|
3,1,5.4|
3,2,5.4|
3,4,3|
4,0,6|
4,1,0.99|
4,2,2.3|
4,3,1.5|
];
constraint_x1_y1=[
0,0,0.51|
0,1,3.9|
0,2,9.7|
0,3,1.8|
0,4,4.7|
1,0,6.9|
1,1,4.9|
1,2,0.18|
1,3,2.1|
1,4,7.9|
2,0,6.8|
2,1,2.4|
2,2,2.4|
2,3,7.4|
2,4,4.1|
3,0,5.5|
3,1,5.2|
3,2,3.5|
3,3,7|
3,4,6.9|
4,0,7.7|
4,1,1.6|
4,2,0.79|
4,3,5.3|
4,4,8.5|
];
initial_distribution_y1=[0.26,0.0033,0.18,0.31,0.25];
transition_y1=[
0.36,0.039,0.18,0.37,0.048|
0.34,0.37,0.062,0.11,0.12|
0.096,0.16,0.29,0.42,0.035|
0.074,0.28,0.33,0.073,0.25|
0.31,0.27,0.18,0.098,0.15|
];
